sat
(:max-memory          18.79
 :memory              18.19
 :num-allocs          13436323
 :rlimit-count        54689
 :sls-constraints     637
 :sls-ddfw-flips      80279.00
 :sls-ddfw-reinits    4
 :sls-ddfw-restarts   70
 :sls-ddfw-shifts     64859.00
 :solve-eqs-elim-vars 4
 :solve-eqs-steps     8
 :time                0.12
 :total-time          0.13)
